NAME          MySample
ROWS
 L  R01
 L  R02
 L  R03
 N  OBJ
COLUMNS
    X01       R01                 1.   R02                 2.
    X01       R03                 1.   OBJ                 6.
    X02       R01                 1.   R02                 3.
    X02       R03                 5.   OBJ                 8.
RHS
    B         R01                10.   R02                25.
    B         R03                35.
ENDATA
